SDVRP instances/p11/p11_1030_tsplib0_splitx10_0.vrp
NAME:.\SDVRP_splitx10_
BEST_KNOWN: 0
COMMENT: 0
DIMENSION: 490
CAPACITY: 2000
EDGE_WEIGHT_FORMAT: FUNCTION
EDGE_WEIGHT_TYPE: EXACT_2D
NODE_COORD_SECTION
1 0.00000 0.00000
2 15 -44
3 15 -44
4 15 -44
5 15 -44
6 15 -42
7 15 -42
8 15 -42
9 15 -42
10 15 -42
11 21 -40
12 21 -40
13 21 -40
14 21 -40
15 21 -40
16 21 -40
17 22 -40
18 22 -40
19 21 -38
20 21 -38
21 21 -38
22 21 -38
23 21 -38
24 22 -36
25 22 -36
26 22 -36
27 22 -36
28 24 -36
29 24 -36
30 24 -36
31 24 -36
32 24 -36
33 24 -36
34 24 -36
35 36 -36
36 36 -36
37 36 -36
38 25 -38
39 25 -38
40 25 -38
41 25 -38
42 25 -38
43 24 -39
44 24 -39
45 25 -40
46 25 -40
47 25 -40
48 37 -39
49 37 -39
50 37 -39
51 37 -39
52 37 -39
53 30 -40
54 30 -40
55 30 -40
56 30 -40
57 30 -40
58 30 -40
59 29 -42
60 26 -42
61 26 -42
62 26 -42
63 26 -42
64 26 -42
65 63 -39
66 63 -39
67 63 -39
68 63 -37
69 63 -37
70 63 -37
71 14 -9
72 66 -39
73 66 -39
74 66 -39
75 66 -39
76 66 -35
77 66 -35
78 66 -32
79 66 -32
80 66 -32
81 68 -42
82 68 -42
83 68 -42
84 68 -42
85 68 -36
86 68 -36
87 68 -36
88 68 -36
89 69 -42
90 69 -42
91 69 -42
92 69 -40
93 69 -40
94 69 -40
95 69 -34
96 69 -34
97 69 -34
98 69 -34
99 69 -34
100 69 -34
101 72 -42
102 72 -42
103 72 -38
104 72 -38
105 72 -38
106 80 -30
107 80 -30
108 80 -30
109 80 -30
110 74 -42
111 74 -42
112 74 -42
113 74 -40
114 74 -40
115 74 -40
116 74 -40
117 74 -36
118 74 -36
119 74 -36
120 75 -44
121 75 -44
122 75 -44
123 75 -44
124 77 -40
125 77 -40
126 77 -40
127 77 -40
128 77 -40
129 75 -37
130 75 -37
131 75 -37
132 75 -37
133 77 -38
134 77 -38
135 77 -38
136 77 -38
137 77 -38
138 77 -38
139 77 -38
140 76 -4
141 76 -4
142 76 -4
143 76 -1
144 76 -1
145 76 -1
146 76 -1
147 76 -1
148 76 -1
149 76 -1
150 76 1
151 76 1
152 76 1
153 76 1
154 76 1
155 76 1
156 76 1
157 75 10
158 75 10
159 75 10
160 75 10
161 79 -2
162 79 -2
163 79 -2
164 79 -2
165 79 -2
166 79 1
167 79 1
168 79 7
169 79 7
170 79 7
171 79 7
172 82 -3
173 82 -3
174 82 -3
175 82 -3
176 82 7
177 82 7
178 82 7
179 82 7
180 82 7
181 84 -3
182 84 -3
183 84 -3
184 84 -1
185 84 -1
186 84 -1
187 84 -1
188 84 -1
189 84 -1
190 84 -1
191 84 3
192 84 3
193 84 3
194 84 3
195 84 3
196 84 3
197 86 -3
198 86 -3
199 86 -3
200 86 -3
201 89 1
202 89 1
203 89 1
204 89 5
205 89 5
206 89 5
207 89 5
208 73 35
209 73 35
210 73 35
211 73 35
212 73 38
213 73 38
214 73 38
215 75 36
216 75 36
217 75 36
218 75 36
219 75 36
220 75 40
221 75 40
222 75 40
223 75 40
224 75 40
225 75 40
226 75 44
227 75 44
228 75 44
229 75 44
230 75 44
231 75 44
232 77 35
233 77 35
234 77 35
235 77 41
236 77 41
237 77 41
238 77 41
239 77 41
240 80 32
241 80 32
242 80 32
243 80 32
244 80 32
245 80 43
246 80 43
247 80 43
248 80 43
249 83 37
250 83 37
251 83 37
252 83 37
253 83 37
254 83 39
255 83 39
256 83 44
257 83 44
258 83 44
259 84 41
260 84 41
261 84 41
262 85 35
263 85 35
264 85 35
265 85 35
266 89 44
267 89 44
268 89 44
269 89 44
270 89 44
271 89 44
272 89 44
273 27 38
274 27 38
275 27 38
276 27 38
277 40 35
278 40 35
279 40 35
280 25 40
281 25 40
282 25 40
283 25 40
284 25 40
285 25 40
286 25 40
287 25 42
288 25 42
289 25 42
290 25 42
291 34 41
292 34 41
293 34 41
294 34 41
295 34 41
296 34 41
297 36 44
298 36 44
299 36 44
300 36 44
301 36 44
302 36 38
303 36 38
304 36 38
305 36 38
306 36 42
307 36 42
308 36 42
309 36 42
310 36 42
311 36 42
312 36 42
313 36 44
314 36 44
315 38 38
316 38 38
317 38 38
318 38 38
319 40 40
320 40 40
321 40 40
322 40 43
323 40 43
324 40 43
325 40 43
326 40 43
327 44 41
328 44 41
329 44 45
330 44 45
331 44 45
332 0 -10
333 0 -10
334 0 -10
335 0 -10
336 0 -5
337 0 -5
338 0 -5
339 8 -15
340 8 -15
341 8 -15
342 8 -15
343 8 -15
344 7 -10
345 7 -10
346 7 -10
347 7 -10
348 6 -7
349 6 -7
350 6 -7
351 6 -7
352 6 -7
353 6 -7
354 6 -7
355 4 -5
356 4 -5
357 4 -5
358 5 -3
359 5 -3
360 5 -3
361 5 -3
362 5 -3
363 5 -3
364 5 -3
365 1 -3
366 1 -3
367 1 -3
368 8 -5
369 8 -5
370 8 -5
371 8 -5
372 11 -6
373 11 -6
374 11 -6
375 10 -5
376 10 -5
377 10 -5
378 8 -4
379 8 -4
380 8 -4
381 10 -1
382 10 -1
383 10 -1
384 10 -1
385 10 -1
386 12 -1
387 12 -1
388 12 -1
389 12 -1
390 12 -1
391 12 -1
392 6 0
393 6 0
394 6 0
395 6 0
396 6 0
397 10 0
398 10 0
399 10 0
400 15 0
401 15 0
402 20 10
403 20 10
404 20 10
405 20 10
406 20 10
407 20 10
408 10 5
409 10 5
410 12 6
411 12 6
412 12 6
413 8 4
414 8 4
415 8 4
416 8 4
417 6 3
418 6 3
419 6 3
420 10 10
421 10 10
422 8 8
423 8 8
424 8 8
425 8 8
426 8 8
427 8 8
428 4 5
429 4 5
430 4 5
431 4 5
432 4 5
433 4 5
434 5 6
435 5 6
436 5 6
437 5 6
438 5 6
439 6 9
440 6 9
441 6 9
442 18 -12
443 18 -12
444 23 -7
445 23 -7
446 23 -7
447 20 5
448 20 5
449 20 5
450 20 5
451 20 5
452 3 -5
453 3 -5
454 3 -5
455 3 -5
456 3 -5
457 5 -9
458 5 -9
459 5 -9
460 5 -9
461 8 -14
462 15 -8
463 15 -8
464 15 -8
465 20 1
466 20 1
467 20 1
468 20 1
469 20 1
470 15 7
471 15 7
472 15 7
473 15 7
474 15 7
475 6 -12
476 6 -12
477 6 -12
478 6 -12
479 15 -10
480 15 -10
481 15 -10
482 15 -10
483 -5 -5
484 -5 -5
485 -5 5
486 -5 5
487 -5 5
488 -5 5
489 -5 5
490 -5 5
DEMAND_SECTION
1 0
2 400
3 100
4 20
5 20
6 200
7 100
8 20
9 20
10 10
11 200
12 20
13 20
14 20
15 20
16 10
17 400
18 20
19 400
20 100
21 20
22 20
23 20
24 400
25 100
26 20
27 20
28 200
29 100
30 20
31 20
32 20
33 20
34 10
35 200
36 20
37 20
38 200
39 20
40 20
41 20
42 20
43 200
44 10
45 400
46 100
47 20
48 200
49 100
50 20
51 20
52 10
53 200
54 100
55 20
56 20
57 20
58 20
59 400
60 400
61 20
62 20
63 20
64 20
65 200
66 100
67 10
68 200
69 20
70 10
71 400
72 400
73 100
74 20
75 20
76 400
77 10
78 200
79 20
80 20
81 400
82 20
83 20
84 10
85 400
86 20
87 20
88 20
89 400
90 20
91 10
92 400
93 100
94 10
95 400
96 20
97 20
98 20
99 20
100 10
101 200
102 10
103 400
104 100
105 10
106 200
107 20
108 20
109 20
110 200
111 20
112 20
113 400
114 100
115 20
116 20
117 400
118 100
119 20
120 400
121 100
122 20
123 10
124 200
125 20
126 20
127 20
128 20
129 400
130 100
131 20
132 10
133 200
134 100
135 20
136 20
137 20
138 20
139 10
140 400
141 100
142 10
143 200
144 100
145 20
146 20
147 20
148 20
149 10
150 200
151 100
152 20
153 20
154 20
155 20
156 10
157 400
158 100
159 20
160 10
161 200
162 20
163 20
164 20
165 10
166 200
167 20
168 400
169 20
170 20
171 10
172 400
173 20
174 20
175 20
176 400
177 100
178 20
179 20
180 10
181 200
182 100
183 10
184 200
185 100
186 20
187 20
188 20
189 20
190 10
191 200
192 100
193 20
194 20
195 20
196 10
197 400
198 100
199 20
200 10
201 400
202 20
203 20
204 400
205 20
206 20
207 20
208 400
209 20
210 20
211 20
212 200
213 20
214 10
215 400
216 100
217 20
218 20
219 20
220 400
221 20
222 20
223 20
224 20
225 10
226 400
227 20
228 20
229 20
230 20
231 10
232 200
233 100
234 20
235 400
236 20
237 20
238 20
239 20
240 200
241 100
242 20
243 20
244 20
245 200
246 100
247 20
248 10
249 400
250 100
251 20
252 20
253 10
254 200
255 100
256 200
257 100
258 20
259 200
260 100
261 10
262 200
263 100
264 20
265 20
266 200
267 100
268 20
269 20
270 20
271 20
272 10
273 400
274 100
275 20
276 20
277 200
278 20
279 10
280 400
281 100
282 20
283 20
284 20
285 20
286 10
287 400
288 100
289 20
290 20
291 400
292 100
293 20
294 20
295 20
296 10
297 400
298 100
299 20
300 20
301 10
302 400
303 100
304 20
305 10
306 400
307 100
308 20
309 20
310 20
311 20
312 10
313 200
314 20
315 200
316 100
317 20
318 10
319 400
320 20
321 10
322 400
323 20
324 20
325 20
326 20
327 400
328 20
329 400
330 100
331 20
332 400
333 20
334 20
335 20
336 200
337 100
338 10
339 400
340 20
341 20
342 20
343 10
344 400
345 20
346 20
347 10
348 400
349 100
350 20
351 20
352 20
353 20
354 10
355 400
356 100
357 10
358 400
359 100
360 20
361 20
362 20
363 20
364 10
365 400
366 100
367 20
368 400
369 100
370 20
371 20
372 200
373 20
374 20
375 400
376 100
377 20
378 400
379 20
380 10
381 200
382 20
383 20
384 20
385 10
386 400
387 100
388 20
389 20
390 20
391 10
392 400
393 20
394 20
395 20
396 10
397 400
398 100
399 10
400 400
401 100
402 200
403 100
404 20
405 20
406 20
407 10
408 400
409 100
410 200
411 20
412 20
413 400
414 20
415 20
416 20
417 400
418 100
419 10
420 400
421 100
422 400
423 100
424 20
425 20
426 20
427 20
428 200
429 100
430 20
431 20
432 20
433 10
434 200
435 20
436 20
437 20
438 20
439 200
440 20
441 10
442 400
443 20
444 200
445 100
446 20
447 400
448 100
449 20
450 20
451 20
452 400
453 100
454 20
455 20
456 20
457 400
458 20
459 20
460 20
461 200
462 200
463 100
464 20
465 400
466 20
467 20
468 20
469 10
470 200
471 100
472 20
473 20
474 10
475 200
476 100
477 20
478 20
479 400
480 100
481 20
482 10
483 400
484 100
485 400
486 100
487 20
488 20
489 20
490 10
DEPOT_SECTION
1
-1
EOF