SDVRP instances/p11/p11_1030_tsplib0_splitx10_0.sol
489 -8 5 7 9 6 1 2 3 4 14 12 15 11 10 13 17 16 21 20 19 22 342 339 340 475 477 344 346 -18 60 61 59 62 63 58 55 53 52 57 56 54 443 444 445 -26 24 23 25 42 43 45 46 44 41 38 40 39 37 28 32 29 33 31 30 27 -34 36 35 51 48 49 47 50 66 65 64 71 74 86 84 85 87 68 67 -69 72 83 82 81 80 90 88 89 92 91 104 103 75 -73 93 100 101 120 122 119 121 109 111 110 114 113 112 115 102 96 97 -76 118 117 116 129 131 128 130 124 125 123 126 127 136 138 135 137 132 133 134 106 105 108 107 -79 78 77 98 99 95 94 197 196 198 199 187 185 183 184 166 165 155 149 -139 141 140 171 173 172 174 180 182 181 188 186 189 160 161 164 163 162 148 143 144 142 145 147 146 -151 153 152 154 150 192 190 193 191 195 194 202 200 201 203 205 206 204 176 177 179 178 175 -167 168 169 170 158 157 159 156 277 278 276 317 314 302 304 303 301 -208 209 207 214 215 236 234 223 219 224 213 211 -210 216 218 217 231 233 232 254 253 249 250 252 251 248 261 264 262 263 242 241 240 239 243 -212 222 221 220 235 237 238 259 260 258 266 268 270 265 271 269 267 255 256 257 245 244 247 246 228 230 225 227 226 229 -307 309 308 311 305 306 310 299 312 296 297 313 300 298 295 294 292 293 290 291 435 436 437 -315 316 318 319 320 327 326 330 328 329 325 323 324 321 322 -336 337 335 331 332 333 334 483 482 487 488 484 486 485 489 -349 352 348 351 343 345 460 341 338 474 476 457 459 456 458 452 455 -355 356 353 350 347 367 370 368 374 375 377 379 378 -362 363 360 359 357 358 361 354 451 453 454 366 365 364 -369 373 372 371 70 481 479 478 480 441 442 463 461 462 376 -382 383 381 384 380 389 385 390 387 386 388 400 399 397 396 398 394 -392 393 395 391 417 416 434 433 431 430 429 428 432 427 -409 410 411 471 469 472 473 470 406 405 403 404 401 402 450 447 446 449 448 467 464 466 465 468 -418 412 413 415 414 407 408 420 419 421 422 -425 426 424 423 274 273 275 272 286 287 289 288 279 285 282 284 281 280 283 440 438 439 0 





OBJ=
2934.654
BEST_KNOWN=
0.000